UBC_400_8.txt

VEHICLE     CAPACITY  LOCATIONS  CUSTOMER  OPTIONS  PRIORITIES  NUMTYPS
10		400		417		400		800		3		4

CUSTOMER  DEMAND
0	 19
1	 14
2	 10
3	 10
4	 14
5	 11
6	 10
7	 10
8	 14
9	 20
10	 10
11	 14
12	 13
13	 16
14	 18
15	 11
16	 12
17	 11
18	 19
19	 13
20	 11
21	 19
22	 20
23	 14
24	 13
25	 12
26	 19
27	 14
28	 19
29	 10
30	 17
31	 20
32	 10
33	 12
34	 15
35	 13
36	 12
37	 11
38	 20
39	 13
40	 16
41	 20
42	 17
43	 17
44	 12
45	 12
46	 14
47	 17
48	 10
49	 19
50	 15
51	 20
52	 10
53	 16
54	 18
55	 19
56	 13
57	 19
58	 16
59	 10
60	 20
61	 20
62	 10
63	 10
64	 13
65	 10
66	 18
67	 16
68	 14
69	 16
70	 17
71	 16
72	 10
73	 20
74	 18
75	 12
76	 18
77	 13
78	 16
79	 14
80	 19
81	 20
82	 18
83	 19
84	 11
85	 18
86	 20
87	 20
88	 19
89	 14
90	 16
91	 16
92	 17
93	 14
94	 16
95	 10
96	 19
97	 18
98	 20
99	 20
100	 14
101	 11
102	 10
103	 16
104	 10
105	 16
106	 12
107	 12
108	 15
109	 10
110	 20
111	 14
112	 10
113	 11
114	 15
115	 14
116	 12
117	 16
118	 15
119	 12
120	 11
121	 10
122	 17
123	 14
124	 12
125	 16
126	 15
127	 15
128	 20
129	 11
130	 20
131	 16
132	 18
133	 16
134	 15
135	 15
136	 20
137	 16
138	 13
139	 17
140	 15
141	 13
142	 15
143	 16
144	 13
145	 16
146	 19
147	 13
148	 11
149	 10
150	 16
151	 14
152	 18
153	 18
154	 10
155	 18
156	 14
157	 15
158	 11
159	 16
160	 16
161	 16
162	 19
163	 19
164	 16
165	 16
166	 19
167	 14
168	 19
169	 20
170	 15
171	 20
172	 15
173	 14
174	 17
175	 17
176	 12
177	 20
178	 14
179	 15
180	 11
181	 20
182	 13
183	 14
184	 16
185	 14
186	 18
187	 20
188	 20
189	 19
190	 16
191	 15
192	 18
193	 14
194	 12
195	 15
196	 19
197	 11
198	 20
199	 16
200	 13
201	 20
202	 20
203	 17
204	 20
205	 16
206	 10
207	 13
208	 12
209	 16
210	 10
211	 15
212	 16
213	 12
214	 20
215	 10
216	 19
217	 15
218	 16
219	 10
220	 18
221	 18
222	 14
223	 12
224	 16
225	 16
226	 10
227	 18
228	 14
229	 10
230	 16
231	 19
232	 18
233	 18
234	 14
235	 17
236	 14
237	 11
238	 14
239	 15
240	 16
241	 12
242	 13
243	 20
244	 11
245	 18
246	 11
247	 16
248	 18
249	 16
250	 15
251	 10
252	 17
253	 20
254	 10
255	 14
256	 12
257	 11
258	 12
259	 13
260	 12
261	 20
262	 20
263	 18
264	 10
265	 18
266	 12
267	 16
268	 11
269	 11
270	 20
271	 12
272	 18
273	 10
274	 15
275	 17
276	 10
277	 15
278	 12
279	 12
280	 14
281	 19
282	 16
283	 11
284	 18
285	 17
286	 20
287	 20
288	 18
289	 17
290	 14
291	 18
292	 20
293	 13
294	 15
295	 13
296	 15
297	 13
298	 14
299	 14
300	 18
301	 16
302	 13
303	 16
304	 12
305	 17
306	 15
307	 16
308	 11
309	 13
310	 15
311	 12
312	 14
313	 16
314	 19
315	 15
316	 20
317	 16
318	 12
319	 18
320	 13
321	 19
322	 12
323	 17
324	 14
325	 14
326	 20
327	 11
328	 18
329	 19
330	 12
331	 15
332	 14
333	 19
334	 17
335	 11
336	 15
337	 20
338	 12
339	 13
340	 17
341	 13
342	 17
343	 20
344	 13
345	 16
346	 16
347	 13
348	 19
349	 11
350	 14
351	 13
352	 15
353	 16
354	 12
355	 12
356	 12
357	 15
358	 19
359	 10
360	 11
361	 15
362	 13
363	 18
364	 17
365	 11
366	 15
367	 14
368	 12
369	 13
370	 19
371	 17
372	 18
373	 11
374	 13
375	 20
376	 13
377	 17
378	 14
379	 11
380	 11
381	 14
382	 13
383	 17
384	 17
385	 17
386	 11
387	 17
388	 12
389	 16
390	 17
391	 10
392	 17
393	 20
394	 15
395	 10
396	 16
397	 16
398	 16
399	 14

LOCATION  XCOORD  YCOORD  CAP  READY  DUE  TYP  SERVICETIME
0		47		12		-1		0		720	 0		0
1		45		36		-1		464		704		 2		6
2		1		43		-1		260		500		 2		6
3		4		29		-1		0		360		 2		6
4		12		19		-1		204		324		 2		6
5		17		15		-1		484		604		 2		6
6		46		40		-1		20		260		 2		6
7		49		38		-1		48		168		 2		6
8		20		47		-1		360		720		 2		6
9		40		45		-1		143		263		 2		6
10		6		5		-1		0		360		 2		6
11		29		42		-1		167		407		 2		6
12		29		5		-1		419		539		 2		6
13		42		48		-1		360		720		 2		6
14		16		29		-1		0		360		 2		6
15		12		24		-1		390		510		 2		6
16		50		32		-1		0		360		 2		6
17		43		47		-1		360		720		 2		6
18		15		36		-1		0		360		 2		6
19		12		37		-1		144		264		 2		6
20		45		1		-1		0		360		 2		6
21		39		16		-1		258		498		 2		6
22		28		19		-1		0		360		 2		6
23		42		38		-1		360		720		 2		6
24		43		28		-1		232		352		 2		6
25		25		10		-1		179		419		 2		6
26		20		47		-1		521		641		 2		6
27		42		23		-1		360		720		 2		6
28		14		8		-1		0		360		 2		6
29		35		23		-1		523		643		 2		6
30		28		9		-1		360		720		 2		6
31		35		24		-1		511		631		 2		6
32		41		40		-1		221		461		 2		6
33		50		41		-1		573		693		 2		6
34		40		33		-1		360		720		 2		6
35		1		19		-1		0		360		 2		6
36		28		38		-1		181		301		 2		6
37		39		1		-1		440		680		 2		6
38		26		11		-1		295		535		 2		6
39		44		5		-1		38		158		 2		6
40		44		16		-1		173		293		 2		6
41		47		47		-1		0		360		 2		6
42		24		14		-1		472		592		 2		6
43		26		19		-1		0		360		 2		6
44		42		28		-1		113		233		 2		6
45		31		28		-1		507		627		 2		6
46		22		32		-1		480		600		 2		6
47		37		13		-1		360		720		 2		6
48		4		23		-1		148		268		 2		6
49		5		10		-1		308		548		 2		6
50		7		19		-1		147		267		 2		6
51		32		8		-1		0		360		 2		6
52		19		13		-1		360		720		 2		6
53		45		23		-1		360		720		 2		6
54		44		31		-1		360		720		 2		6
55		48		36		-1		526		646		 2		6
56		48		27		-1		135		375		 2		6
57		12		5		-1		0		360		 2		6
58		5		42		-1		0		360		 2		6
59		8		44		-1		360		720		 2		6
60		4		13		-1		40		160		 2		6
61		35		2		-1		115		235		 2		6
62		46		2		-1		376		616		 2		6
63		37		27		-1		413		533		 2		6
64		4		18		-1		85		205		 2		6
65		29		25		-1		0		360		 2		6
66		41		48		-1		0		360		 2		6
67		31		49		-1		360		720		 2		6
68		17		10		-1		473		713		 2		6
69		22		32		-1		213		333		 2		6
70		2		9		-1		360		720		 2		6
71		34		17		-1		84		324		 2		6
72		22		40		-1		137		377		 2		6
73		16		36		-1		0		360		 2		6
74		20		32		-1		360		720		 2		6
75		19		4		-1		0		360		 2		6
76		30		27		-1		360		720		 2		6
77		8		2		-1		0		360		 2		6
78		21		19		-1		360		720		 2		6
79		42		28		-1		237		357		 2		6
80		14		39		-1		71		191		 2		6
81		7		9		-1		356		596		 2		6
82		22		44		-1		3		123		 2		6
83		23		48		-1		39		159		 2		6
84		35		29		-1		39		159		 2		6
85		13		17		-1		90		330		 2		6
86		11		45		-1		0		360		 2		6
87		33		3		-1		0		360		 2		6
88		47		11		-1		214		454		 2		6
89		30		11		-1		323		563		 2		6
90		19		11		-1		0		360		 2		6
91		35		28		-1		0		360		 2		6
92		17		42		-1		28		148		 2		6
93		11		25		-1		45		165		 2		6
94		26		43		-1		17		137		 2		6
95		47		30		-1		581		701		 2		6
96		11		10		-1		0		360		 2		6
97		12		25		-1		360		720		 2		6
98		24		4		-1		443		563		 2		6
99		3		29		-1		0		360		 2		6
100		29		50		-1		197		317		 2		6
101		4		7		-1		231		351		 2		6
102		36		48		-1		10		130		 2		6
103		37		42		-1		589		709		 2		6
104		9		37		-1		23		263		 2		6
105		2		8		-1		156		396		 2		6
106		49		19		-1		0		360		 2		6
107		1		2		-1		27		267		 2		6
108		27		24		-1		0		360		 2		6
109		20		41		-1		0		360		 2		6
110		12		15		-1		486		606		 2		6
111		10		18		-1		85		205		 2		6
112		4		35		-1		119		239		 2		6
113		35		19		-1		0		360		 2		6
114		1		30		-1		0		360		 2		6
115		3		27		-1		208		448		 2		6
116		14		41		-1		319		559		 2		6
117		4		22		-1		336		576		 2		6
118		30		24		-1		360		720		 2		6
119		14		4		-1		0		360		 2		6
120		9		35		-1		393		513		 2		6
121		11		1		-1		412		652		 2		6
122		22		29		-1		400		520		 2		6
123		8		43		-1		0		360		 2		6
124		42		23		-1		174		294		 2		6
125		39		37		-1		0		360		 2		6
126		23		47		-1		110		230		 2		6
127		34		47		-1		360		720		 2		6
128		5		29		-1		447		687		 2		6
129		39		13		-1		360		720		 2		6
130		8		10		-1		1		121		 2		6
131		50		9		-1		34		154		 2		6
132		47		36		-1		1		241		 2		6
133		27		7		-1		302		542		 2		6
134		40		50		-1		440		560		 2		6
135		38		46		-1		379		619		 2		6
136		44		37		-1		463		583		 2		6
137		30		30		-1		2		122		 2		6
138		47		35		-1		212		452		 2		6
139		29		30		-1		51		291		 2		6
140		30		23		-1		0		360		 2		6
141		42		36		-1		369		489		 2		6
142		35		11		-1		54		294		 2		6
143		26		10		-1		443		563		 2		6
144		8		13		-1		360		720		 2		6
145		8		28		-1		360		720		 2		6
146		26		10		-1		57		297		 2		6
147		26		37		-1		463		583		 2		6
148		3		30		-1		187		307		 2		6
149		42		12		-1		0		360		 2		6
150		37		12		-1		360		720		 2		6
151		37		25		-1		0		360		 2		6
152		14		2		-1		138		258		 2		6
153		42		6		-1		360		720		 2		6
154		17		36		-1		75		315		 2		6
155		46		26		-1		360		720		 2		6
156		34		22		-1		468		588		 2		6
157		3		41		-1		0		360		 2		6
158		25		18		-1		108		348		 2		6
159		8		33		-1		437		557		 2		6
160		8		44		-1		402		642		 2		6
161		37		18		-1		0		360		 2		6
162		16		32		-1		145		385		 2		6
163		5		49		-1		379		619		 2		6
164		43		15		-1		360		720		 2		6
165		20		2		-1		360		720		 2		6
166		30		34		-1		0		360		 2		6
167		17		22		-1		360		720		 2		6
168		11		14		-1		0		360		 2		6
169		28		41		-1		242		482		 2		6
170		21		39		-1		220		340		 2		6
171		37		32		-1		0		360		 2		6
172		48		11		-1		360		720		 2		6
173		24		11		-1		360		720		 2		6
174		5		1		-1		0		360		 2		6
175		39		48		-1		0		360		 2		6
176		28		39		-1		0		360		 2		6
177		47		16		-1		360		720		 2		6
178		48		9		-1		0		360		 2		6
179		29		1		-1		360		720		 2		6
180		18		45		-1		360		720		 2		6
181		27		29		-1		0		360		 2		6
182		10		24		-1		63		183		 2		6
183		32		11		-1		149		269		 2		6
184		1		25		-1		186		306		 2		6
185		16		3		-1		58		178		 2		6
186		46		4		-1		215		335		 2		6
187		32		20		-1		81		201		 2		6
188		11		25		-1		0		360		 2		6
189		9		42		-1		107		227		 2		6
190		24		1		-1		294		534		 2		6
191		9		4		-1		360		720		 2		6
192		30		5		-1		59		179		 2		6
193		19		3		-1		360		720		 2		6
194		49		21		-1		416		536		 2		6
195		44		34		-1		0		360		 2		6
196		36		29		-1		342		582		 2		6
197		23		5		-1		470		590		 2		6
198		8		32		-1		221		341		 2		6
199		24		46		-1		0		360		 2		6
200		13		26		-1		0		360		 2		6
201		42		13		-1		90		330		 2		6
202		12		12		-1		498		618		 2		6
203		25		25		-1		28		148		 2		6
204		26		19		-1		387		627		 2		6
205		23		5		-1		360		720		 2		6
206		36		39		-1		470		710		 2		6
207		19		14		-1		459		579		 2		6
208		10		42		-1		0		360		 2		6
209		15		43		-1		177		297		 2		6
210		42		28		-1		157		397		 2		6
211		37		2		-1		0		360		 2		6
212		19		33		-1		328		568		 2		6
213		17		34		-1		518		638		 2		6
214		35		25		-1		0		360		 2		6
215		22		10		-1		470		710		 2		6
216		4		5		-1		0		360		 2		6
217		34		18		-1		0		360		 2		6
218		43		24		-1		0		360		 2		6
219		34		24		-1		360		720		 2		6
220		35		26		-1		189		309		 2		6
221		22		38		-1		0		360		 2		6
222		29		20		-1		472		592		 2		6
223		15		36		-1		0		360		 2		6
224		42		9		-1		455		695		 2		6
225		50		36		-1		360		720		 2		6
226		9		5		-1		0		360		 2		6
227		32		11		-1		231		471		 2		6
228		47		46		-1		387		507		 2		6
229		48		44		-1		89		209		 2		6
230		50		9		-1		0		360		 2		6
231		13		12		-1		474		714		 2		6
232		18		30		-1		141		261		 2		6
233		2		36		-1		497		617		 2		6
234		38		37		-1		360		720		 2		6
235		42		29		-1		360		720		 2		6
236		14		30		-1		184		304		 2		6
237		3		10		-1		136		256		 2		6
238		25		15		-1		0		360		 2		6
239		37		33		-1		360		720		 2		6
240		48		12		-1		0		360		 2		6
241		8		39		-1		360		720		 2		6
242		26		25		-1		151		271		 2		6
243		32		45		-1		63		303		 2		6
244		35		47		-1		149		389		 2		6
245		35		4		-1		465		585		 2		6
246		37		34		-1		0		360		 2		6
247		37		33		-1		196		316		 2		6
248		38		4		-1		360		720		 2		6
249		33		2		-1		412		652		 2		6
250		44		22		-1		157		277		 2		6
251		38		48		-1		475		715		 2		6
252		8		31		-1		360		720		 2		6
253		23		15		-1		517		637		 2		6
254		9		47		-1		240		480		 2		6
255		20		29		-1		0		360		 2		6
256		11		46		-1		360		720		 2		6
257		4		17		-1		360		720		 2		6
258		44		34		-1		424		664		 2		6
259		49		4		-1		360		720		 2		6
260		19		2		-1		202		442		 2		6
261		23		26		-1		84		324		 2		6
262		44		9		-1		0		360		 2		6
263		50		46		-1		0		120		 2		6
264		11		13		-1		68		188		 2		6
265		44		49		-1		360		720		 2		6
266		4		10		-1		0		360		 2		6
267		47		49		-1		360		720		 2		6
268		36		5		-1		427		547		 2		6
269		21		31		-1		0		360		 2		6
270		9		1		-1		479		599		 2		6
271		10		17		-1		221		341		 2		6
272		2		30		-1		420		540		 2		6
273		11		25		-1		361		481		 2		6
274		16		14		-1		388		628		 2		6
275		5		31		-1		0		360		 2		6
276		5		14		-1		360		720		 2		6
277		4		34		-1		562		682		 2		6
278		8		4		-1		273		513		 2		6
279		20		49		-1		160		280		 2		6
280		28		44		-1		407		527		 2		6
281		5		20		-1		0		360		 2		6
282		17		33		-1		360		720		 2		6
283		23		30		-1		360		720		 2		6
284		31		37		-1		402		522		 2		6
285		6		8		-1		25		145		 2		6
286		11		15		-1		360		720		 2		6
287		19		9		-1		199		439		 2		6
288		9		42		-1		95		215		 2		6
289		18		43		-1		190		430		 2		6
290		12		24		-1		271		511		 2		6
291		46		9		-1		0		360		 2		6
292		46		29		-1		360		720		 2		6
293		28		33		-1		530		650		 2		6
294		32		49		-1		103		343		 2		6
295		25		9		-1		360		720		 2		6
296		42		20		-1		396		516		 2		6
297		42		23		-1		133		253		 2		6
298		15		12		-1		367		487		 2		6
299		13		11		-1		360		720		 2		6
300		20		22		-1		360		720		 2		6
301		7		21		-1		3		123		 2		6
302		11		33		-1		6		126		 2		6
303		24		34		-1		0		360		 2		6
304		48		14		-1		0		360		 2		6
305		26		9		-1		360		720		 2		6
306		23		33		-1		0		360		 2		6
307		20		39		-1		177		417		 2		6
308		22		4		-1		360		720		 2		6
309		32		26		-1		126		246		 2		6
310		48		17		-1		360		720		 2		6
311		9		11		-1		0		360		 2		6
312		27		44		-1		360		720		 2		6
313		30		20		-1		350		590		 2		6
314		9		27		-1		0		360		 2		6
315		15		30		-1		173		293		 2		6
316		46		44		-1		0		360		 2		6
317		1		10		-1		125		245		 2		6
318		43		50		-1		360		720		 2		6
319		29		8		-1		42		282		 2		6
320		48		7		-1		360		720		 2		6
321		6		50		-1		133		373		 2		6
322		43		24		-1		474		594		 2		6
323		45		28		-1		0		360		 2		6
324		13		1		-1		375		615		 2		6
325		27		33		-1		379		619		 2		6
326		21		23		-1		0		360		 2		6
327		4		36		-1		360		720		 2		6
328		44		34		-1		0		360		 2		6
329		27		17		-1		168		288		 2		6
330		32		38		-1		161		401		 2		6
331		8		38		-1		85		205		 2		6
332		37		3		-1		0		360		 2		6
333		34		4		-1		578		698		 2		6
334		36		8		-1		0		360		 2		6
335		14		40		-1		360		720		 2		6
336		41		23		-1		360		720		 2		6
337		19		6		-1		0		360		 2		6
338		27		17		-1		165		405		 2		6
339		27		41		-1		0		360		 2		6
340		44		18		-1		75		315		 2		6
341		31		48		-1		239		479		 2		6
342		7		34		-1		130		370		 2		6
343		14		1		-1		360		720		 2		6
344		29		49		-1		2		122		 2		6
345		11		18		-1		227		347		 2		6
346		32		24		-1		413		653		 2		6
347		49		37		-1		419		539		 2		6
348		45		28		-1		0		360		 2		6
349		41		32		-1		360		720		 2		6
350		7		40		-1		558		678		 2		6
351		21		40		-1		0		360		 2		6
352		3		14		-1		169		289		 2		6
353		3		26		-1		89		209		 2		6
354		40		2		-1		232		352		 2		6
355		41		26		-1		0		360		 2		6
356		49		26		-1		530		650		 2		6
357		21		43		-1		360		720		 2		6
358		24		2		-1		106		346		 2		6
359		20		14		-1		240		480		 2		6
360		10		50		-1		0		360		 2		6
361		46		30		-1		360		720		 2		6
362		1		18		-1		543		663		 2		6
363		14		29		-1		30		150		 2		6
364		28		21		-1		98		218		 2		6
365		9		29		-1		0		360		 2		6
366		28		23		-1		0		360		 2		6
367		2		4		-1		121		361		 2		6
368		6		27		-1		360		720		 2		6
369		34		38		-1		182		302		 2		6
370		25		39		-1		590		710		 2		6
371		47		41		-1		126		246		 2		6
372		7		5		-1		0		360		 2		6
373		48		9		-1		429		669		 2		6
374		12		8		-1		101		221		 2		6
375		1		27		-1		0		360		 2		6
376		13		8		-1		177		297		 2		6
377		17		21		-1		588		708		 2		6
378		10		2		-1		6		126		 2		6
379		13		23		-1		198		438		 2		6
380		14		17		-1		98		218		 2		6
381		2		15		-1		360		720		 2		6
382		42		37		-1		2		122		 2		6
383		40		9		-1		0		360		 2		6
384		4		5		-1		360		720		 2		6
385		23		37		-1		529		649		 2		6
386		25		41		-1		422		542		 2		6
387		41		47		-1		446		686		 2		6
388		45		26		-1		124		244		 2		6
389		3		7		-1		563		683		 2		6
390		14		9		-1		139		259		 2		6
391		33		1		-1		528		648		 2		6
392		11		7		-1		360		720		 2		6
393		39		12		-1		89		209		 2		6
394		27		6		-1		100		340		 2		6
395		41		7		-1		0		360		 2		6
396		21		23		-1		0		360		 2		6
397		34		28		-1		360		720		 2		6
398		19		40		-1		360		720		 2		6
399		29		44		-1		37		277		 2		6
400		34		25		-1		360		720		 2		6
401		18		44		11		0		720		 1		4
402		45		38		19		0		720		 1		4
403		16		21		26		0		720		 1		4
404		39		20		30		51		531		 1		4
405		25		45		30		89		569		 1		4
406		14		22		15		0		720		 1		4
407		17		36		23		0		720		 1		4
408		38		39		30		137		617		 1		4
409		8		25		30		4		484		 1		4
410		20		15		30		149		629		 1		4
411		26		19		30		61		541		 1		4
412		28		44		30		57		537		 1		4
413		11		13		17		0		720		 1		4
414		36		7		18		0		720		 1		4
415		28		6		24		0		720		 1		4
416		10		6		26		0		720		 1		4
OPTION  LOCATION  CUSTOMER  PRIO  SERVICETIME   COST
0		405		0		0		2		0
1		407		1		0		2		0
2		410		2		0		2		0
3		408		3		0		2		0
4		402		4		0		2		0
5		402		5		0		2		0
6		411		6		0		2		0
7		401		7		0		2		0
8		406		8		0		2		0
9		414		9		0		2		0
10		413		10		0		2		0
11		404		11		0		2		0
12		402		12		0		2		0
13		402		13		0		2		0
14		401		14		0		2		0
15		401		15		0		2		0
16		416		16		0		2		0
17		411		17		0		2		0
18		411		18		0		2		0
19		414		19		0		2		0
20		406		20		0		2		0
21		416		21		0		2		0
22		408		22		0		2		0
23		407		23		0		2		0
24		406		24		0		2		0
25		403		25		0		2		0
26		413		26		0		2		0
27		408		27		0		2		0
28		403		28		0		2		0
29		403		29		0		2		0
30		415		30		0		2		0
31		415		31		0		2		0
32		412		32		0		2		0
33		405		33		0		2		0
34		408		34		0		2		0
35		415		35		0		2		0
36		402		36		0		2		0
37		401		37		0		2		0
38		416		38		0		2		0
39		406		39		0		2		0
40		413		40		0		2		0
41		407		41		0		2		0
42		416		42		0		2		0
43		411		43		0		2		0
44		401		44		0		2		0
45		410		45		0		2		0
46		410		46		0		2		0
47		403		47		0		2		0
48		406		48		0		2		0
49		409		49		0		2		0
50		406		50		0		2		0
51		410		51		0		2		0
52		403		52		0		2		0
53		412		53		0		2		0
54		414		54		0		2		0
55		407		55		0		2		0
56		412		56		0		2		0
57		405		57		0		2		0
58		401		58		0		2		0
59		403		59		0		2		0
60		416		60		0		2		0
61		410		61		0		2		0
62		402		62		0		2		0
63		401		63		0		2		0
64		401		64		0		2		0
65		406		65		0		2		0
66		404		66		0		2		0
67		408		67		0		2		0
68		401		68		0		2		0
69		407		69		0		2		0
70		408		70		0		2		0
71		414		71		0		2		0
72		405		72		0		2		0
73		402		73		0		2		0
74		409		74		0		2		0
75		413		75		0		2		0
76		414		76		0		2		0
77		412		77		0		2		0
78		409		78		0		2		0
79		416		79		0		2		0
80		1		80		0		5		0
81		2		81		0		5		0
82		3		82		0		5		0
83		4		83		0		5		0
84		5		84		0		5		0
85		6		85		0		5		0
86		7		86		0		5		0
87		8		87		0		5		0
88		9		88		0		5		0
89		10		89		0		5		0
90		11		90		0		5		0
91		12		91		0		5		0
92		13		92		0		5		0
93		14		93		0		5		0
94		15		94		0		5		0
95		16		95		0		5		0
96		17		96		0		5		0
97		18		97		0		5		0
98		19		98		0		5		0
99		20		99		0		5		0
100		21		100		0		5		0
101		22		101		0		5		0
102		23		102		0		5		0
103		24		103		0		5		0
104		25		104		0		5		0
105		26		105		0		5		0
106		27		106		0		5		0
107		28		107		0		5		0
108		29		108		0		5		0
109		30		109		0		5		0
110		31		110		0		5		0
111		32		111		0		5		0
112		33		112		0		5		0
113		34		113		0		5		0
114		35		114		0		5		0
115		36		115		0		5		0
116		37		116		0		5		0
117		38		117		0		5		0
118		39		118		0		5		0
119		40		119		0		5		0
120		41		120		0		5		0
121		42		121		0		5		0
122		43		122		0		5		0
123		44		123		0		5		0
124		45		124		0		5		0
125		46		125		0		5		0
126		47		126		0		5		0
127		48		127		0		5		0
128		49		128		0		5		0
129		50		129		0		5		0
130		51		130		0		5		0
131		52		131		0		5		0
132		53		132		0		5		0
133		54		133		0		5		0
134		55		134		0		5		0
135		56		135		0		5		0
136		57		136		0		5		0
137		58		137		0		5		0
138		59		138		0		5		0
139		60		139		0		5		0
140		61		140		0		5		0
141		62		141		0		5		0
142		63		142		0		5		0
143		64		143		0		5		0
144		65		144		0		5		0
145		66		145		0		5		0
146		67		146		0		5		0
147		68		147		0		5		0
148		69		148		0		5		0
149		70		149		0		5		0
150		71		150		0		5		0
151		72		151		0		5		0
152		73		152		0		5		0
153		74		153		0		5		0
154		75		154		0		5		0
155		76		155		0		5		0
156		77		156		0		5		0
157		78		157		0		5		0
158		79		158		0		5		0
159		80		159		0		5		0
160		81		160		0		5		0
161		409		160		1		2		0
162		82		161		1		5		0
163		406		161		0		2		0
164		83		162		1		5		0
165		402		162		0		2		0
166		84		163		1		5		0
167		411		163		0		2		0
168		85		164		0		5		0
169		414		164		1		2		0
170		86		165		1		5		0
171		409		165		0		2		0
172		87		166		0		5		0
173		414		166		1		2		0
174		88		167		1		5		0
175		411		167		0		2		0
176		89		168		0		5		0
177		415		168		1		2		0
178		90		169		0		5		0
179		416		169		1		2		0
180		91		170		0		5		0
181		407		170		1		2		0
182		92		171		0		5		0
183		412		171		1		2		0
184		93		172		1		5		0
185		413		172		0		2		0
186		94		173		0		5		0
187		416		173		1		2		0
188		95		174		0		5		0
189		409		174		1		2		0
190		96		175		1		5		0
191		416		175		0		2		0
192		97		176		0		5		0
193		403		176		1		2		0
194		98		177		1		5		0
195		414		177		0		2		0
196		99		178		1		5		0
197		403		178		0		2		0
198		100		179		0		5		0
199		408		179		1		2		0
200		101		180		1		5		0
201		410		180		0		2		0
202		102		181		0		5		0
203		405		181		1		2		0
204		103		182		1		5		0
205		404		182		0		2		0
206		104		183		0		5		0
207		403		183		1		2		0
208		105		184		0		5		0
209		403		184		1		2		0
210		106		185		1		5		0
211		408		185		0		2		0
212		107		186		0		5		0
213		402		186		1		2		0
214		108		187		1		5		0
215		401		187		0		2		0
216		109		188		1		5		0
217		405		188		0		2		0
218		110		189		1		5		0
219		410		189		0		2		0
220		111		190		1		5		0
221		403		190		0		2		0
222		112		191		0		5		0
223		402		191		1		2		0
224		113		192		1		5		0
225		408		192		0		2		0
226		114		193		1		5		0
227		416		193		0		2		0
228		115		194		1		5		0
229		406		194		0		2		0
230		116		195		0		5		0
231		409		195		1		2		0
232		117		196		1		5		0
233		408		196		0		2		0
234		118		197		1		5		0
235		405		197		0		2		0
236		119		198		1		5		0
237		403		198		0		2		0
238		120		199		0		5		0
239		415		199		1		2		0
240		121		200		1		5		0
241		412		200		0		2		0
242		122		201		1		5		0
243		402		201		0		2		0
244		123		202		1		5		0
245		405		202		0		2		0
246		124		203		0		5		0
247		409		203		1		2		0
248		125		204		1		5		0
249		402		204		0		2		0
250		126		205		0		5		0
251		412		205		1		2		0
252		127		206		0		5		0
253		405		206		1		2		0
254		128		207		0		5		0
255		407		207		1		2		0
256		129		208		1		5		0
257		405		208		0		2		0
258		130		209		0		5		0
259		406		209		1		2		0
260		131		210		1		5		0
261		415		210		0		2		0
262		132		211		1		5		0
263		406		211		0		2		0
264		133		212		1		5		0
265		407		212		0		2		0
266		134		213		0		5		0
267		412		213		1		2		0
268		135		214		1		5		0
269		410		214		0		2		0
270		136		215		1		5		0
271		402		215		0		2		0
272		137		216		0		5		0
273		408		216		1		2		0
274		138		217		0		5		0
275		411		217		1		2		0
276		139		218		1		5		0
277		408		218		0		2		0
278		140		219		0		5		0
279		407		219		1		2		0
280		141		220		0		5		0
281		404		220		1		2		0
282		142		221		1		5		0
283		402		221		0		2		0
284		143		222		1		5		0
285		412		222		0		2		0
286		144		223		0		5		0
287		410		223		1		2		0
288		145		224		0		5		0
289		413		224		1		2		0
290		146		225		1		5		0
291		406		225		0		2		0
292		147		226		1		5		0
293		402		226		0		2		0
294		148		227		0		5		0
295		407		227		1		2		0
296		149		228		1		5		0
297		414		228		0		2		0
298		150		229		0		5		0
299		415		229		1		2		0
300		151		230		0		5		0
301		408		230		1		2		0
302		152		231		0		5		0
303		403		231		1		2		0
304		153		232		0		5		0
305		410		232		1		2		0
306		154		233		0		5		0
307		401		233		1		2		0
308		155		234		1		5		0
309		409		234		0		2		0
310		156		235		1		5		0
311		411		235		0		2		0
312		157		236		0		5		0
313		406		236		1		2		0
314		158		237		0		5		0
315		406		237		1		2		0
316		159		238		0		5		0
317		404		238		1		2		0
318		160		239		0		5		0
319		410		239		1		2		0
320		161		240		0		5		0
321		411		240		1		2		0
322		414		240		2		2		0
323		162		241		0		5		0
324		403		241		1		2		0
325		409		241		2		2		0
326		163		242		0		5		0
327		409		242		1		2		0
328		407		242		2		2		0
329		164		243		2		5		0
330		406		243		0		2		0
331		413		243		1		2		0
332		165		244		1		5		0
333		416		244		2		2		0
334		410		244		0		2		0
335		166		245		2		5		0
336		402		245		1		2		0
337		403		245		0		2		0
338		167		246		0		5		0
339		406		246		2		2		0
340		413		246		1		2		0
341		168		247		2		5		0
342		416		247		0		2		0
343		406		247		1		2		0
344		169		248		2		5		0
345		405		248		0		2		0
346		401		248		1		2		0
347		170		249		2		5		0
348		408		249		0		2		0
349		401		249		1		2		0
350		171		250		0		5		0
351		404		250		1		2		0
352		411		250		2		2		0
353		172		251		1		5		0
354		404		251		2		2		0
355		406		251		0		2		0
356		173		252		0		5		0
357		414		252		2		2		0
358		415		252		1		2		0
359		174		253		2		5		0
360		413		253		0		2		0
361		406		253		1		2		0
362		175		254		1		5		0
363		401		254		0		2		0
364		405		254		2		2		0
365		176		255		1		5		0
366		416		255		2		2		0
367		415		255		0		2		0
368		177		256		2		5		0
369		411		256		0		2		0
370		415		256		1		2		0
371		178		257		1		5		0
372		404		257		0		2		0
373		401		257		2		2		0
374		179		258		1		5		0
375		415		258		2		2		0
376		416		258		0		2		0
377		180		259		2		5		0
378		408		259		0		2		0
379		407		259		1		2		0
380		181		260		2		5		0
381		414		260		1		2		0
382		416		260		0		2		0
383		182		261		1		5		0
384		409		261		0		2		0
385		402		261		2		2		0
386		183		262		2		5		0
387		414		262		1		2		0
388		410		262		0		2		0
389		184		263		0		5		0
390		407		263		2		2		0
391		405		263		1		2		0
392		185		264		2		5		0
393		416		264		1		2		0
394		401		264		0		2		0
395		186		265		2		5		0
396		404		265		0		2		0
397		415		265		1		2		0
398		187		266		2		5		0
399		407		266		1		2		0
400		405		266		0		2		0
401		188		267		2		5		0
402		413		267		1		2		0
403		412		267		0		2		0
404		189		268		2		5		0
405		416		268		0		2		0
406		406		268		1		2		0
407		190		269		0		5		0
408		410		269		1		2		0
409		409		269		2		2		0
410		191		270		1		5		0
411		403		270		0		2		0
412		413		270		2		2		0
413		192		271		2		5		0
414		405		271		1		2		0
415		402		271		0		2		0
416		193		272		2		5		0
417		416		272		1		2		0
418		401		272		0		2		0
419		194		273		1		5		0
420		408		273		0		2		0
421		412		273		2		2		0
422		195		274		1		5		0
423		410		274		0		2		0
424		415		274		2		2		0
425		196		275		2		5		0
426		408		275		1		2		0
427		411		275		0		2		0
428		197		276		2		5		0
429		411		276		0		2		0
430		415		276		1		2		0
431		198		277		1		5		0
432		403		277		2		2		0
433		414		277		0		2		0
434		199		278		2		5		0
435		407		278		0		2		0
436		401		278		1		2		0
437		200		279		1		5		0
438		407		279		2		2		0
439		404		279		0		2		0
440		201		280		1		5		0
441		414		280		2		2		0
442		408		280		0		2		0
443		202		281		1		5		0
444		413		281		2		2		0
445		416		281		0		2		0
446		203		282		1		5		0
447		407		282		0		2		0
448		411		282		2		2		0
449		204		283		1		5		0
450		405		283		2		2		0
451		415		283		0		2		0
452		205		284		0		5		0
453		410		284		1		2		0
454		414		284		2		2		0
455		206		285		0		5		0
456		408		285		2		2		0
457		405		285		1		2		0
458		207		286		2		5		0
459		406		286		1		2		0
460		409		286		0		2		0
461		208		287		2		5		0
462		405		287		0		2		0
463		412		287		1		2		0
464		209		288		1		5		0
465		405		288		2		2		0
466		407		288		0		2		0
467		210		289		1		5		0
468		411		289		0		2		0
469		413		289		2		2		0
470		211		290		0		5		0
471		414		290		1		2		0
472		404		290		2		2		0
473		212		291		2		5		0
474		406		291		0		2		0
475		404		291		1		2		0
476		213		292		0		5		0
477		412		292		1		2		0
478		415		292		2		2		0
479		214		293		2		5		0
480		410		293		0		2		0
481		405		293		1		2		0
482		215		294		2		5		0
483		413		294		1		2		0
484		411		294		0		2		0
485		216		295		2		5		0
486		411		295		0		2		0
487		416		295		1		2		0
488		217		296		1		5		0
489		414		296		2		2		0
490		415		296		0		2		0
491		218		297		1		5		0
492		414		297		0		2		0
493		402		297		2		2		0
494		219		298		0		5		0
495		404		298		1		2		0
496		410		298		2		2		0
497		220		299		0		5		0
498		408		299		1		2		0
499		411		299		2		2		0
500		221		300		2		5		0
501		412		300		1		2		0
502		405		300		0		2		0
503		222		301		1		5		0
504		415		301		2		2		0
505		403		301		0		2		0
506		223		302		0		5		0
507		401		302		2		2		0
508		405		302		1		2		0
509		224		303		1		5		0
510		405		303		2		2		0
511		415		303		0		2		0
512		225		304		2		5		0
513		402		304		0		2		0
514		407		304		1		2		0
515		226		305		0		5		0
516		403		305		1		2		0
517		406		305		2		2		0
518		227		306		0		5		0
519		407		306		2		2		0
520		404		306		1		2		0
521		228		307		0		5		0
522		408		307		2		2		0
523		405		307		1		2		0
524		229		308		1		5		0
525		402		308		0		2		0
526		407		308		2		2		0
527		230		309		2		5		0
528		404		309		1		2		0
529		414		309		0		2		0
530		231		310		0		5		0
531		410		310		1		2		0
532		407		310		2		2		0
533		232		311		1		5		0
534		401		311		2		2		0
535		403		311		0		2		0
536		233		312		1		5		0
537		414		312		0		2		0
538		409		312		2		2		0
539		234		313		1		5		0
540		402		313		2		2		0
541		411		313		0		2		0
542		235		314		1		5		0
543		409		314		2		2		0
544		416		314		0		2		0
545		236		315		2		5		0
546		407		315		0		2		0
547		402		315		1		2		0
548		237		316		2		5		0
549		409		316		0		2		0
550		403		316		1		2		0
551		238		317		2		5		0
552		406		317		0		2		0
553		415		317		1		2		0
554		239		318		1		5		0
555		408		318		2		2		0
556		402		318		0		2		0
557		240		319		1		5		0
558		401		319		2		2		0
559		406		319		0		2		0
560		241		320		2		5		0
561		242		320		1		5		0
562		401		320		0		2		0
563		243		321		2		5		0
564		244		321		0		5		0
565		401		321		1		2		0
566		245		322		0		5		0
567		246		322		1		5		0
568		411		322		2		2		0
569		247		323		2		5		0
570		248		323		0		5		0
571		408		323		1		2		0
572		249		324		2		5		0
573		250		324		0		5		0
574		403		324		1		2		0
575		251		325		1		5		0
576		252		325		0		5		0
577		407		325		2		2		0
578		253		326		0		5		0
579		254		326		1		5		0
580		410		326		2		2		0
581		255		327		2		5		0
582		256		327		1		5		0
583		408		327		0		2		0
584		257		328		0		5		0
585		258		328		1		5		0
586		413		328		2		2		0
587		259		329		1		5		0
588		260		329		2		5		0
589		410		329		0		2		0
590		261		330		2		5		0
591		262		330		1		5		0
592		415		330		0		2		0
593		263		331		2		5		0
594		264		331		0		5		0
595		410		331		1		2		0
596		265		332		2		5		0
597		266		332		0		5		0
598		403		332		1		2		0
599		267		333		2		5		0
600		268		333		0		5		0
601		402		333		1		2		0
602		269		334		0		5		0
603		270		334		2		5		0
604		405		334		1		2		0
605		271		335		2		5		0
606		272		335		0		5		0
607		403		335		1		2		0
608		273		336		1		5		0
609		274		336		2		5		0
610		416		336		0		2		0
611		275		337		1		5		0
612		276		337		0		5		0
613		416		337		2		2		0
614		277		338		0		5		0
615		278		338		1		5		0
616		416		338		2		2		0
617		279		339		1		5		0
618		280		339		0		5		0
619		408		339		2		2		0
620		281		340		0		5		0
621		282		340		1		5		0
622		401		340		2		2		0
623		283		341		2		5		0
624		284		341		0		5		0
625		408		341		1		2		0
626		285		342		1		5		0
627		286		342		2		5		0
628		401		342		0		2		0
629		287		343		1		5		0
630		288		343		0		5		0
631		414		343		2		2		0
632		289		344		1		5		0
633		290		344		0		5		0
634		403		344		2		2		0
635		291		345		0		5		0
636		292		345		1		5		0
637		416		345		2		2		0
638		293		346		2		5		0
639		294		346		0		5		0
640		413		346		1		2		0
641		295		347		2		5		0
642		296		347		0		5		0
643		404		347		1		2		0
644		297		348		1		5		0
645		298		348		2		5		0
646		413		348		0		2		0
647		299		349		2		5		0
648		300		349		0		5		0
649		416		349		1		2		0
650		301		350		0		5		0
651		302		350		1		5		0
652		404		350		2		2		0
653		303		351		0		5		0
654		304		351		2		5		0
655		408		351		1		2		0
656		305		352		0		5		0
657		306		352		2		5		0
658		408		352		1		2		0
659		307		353		0		5		0
660		308		353		2		5		0
661		401		353		1		2		0
662		309		354		0		5		0
663		310		354		1		5		0
664		411		354		2		2		0
665		311		355		0		5		0
666		312		355		1		5		0
667		401		355		2		2		0
668		313		356		0		5		0
669		314		356		1		5		0
670		403		356		2		2		0
671		315		357		1		5		0
672		316		357		0		5		0
673		406		357		2		2		0
674		317		358		1		5		0
675		318		358		2		5		0
676		412		358		0		2		0
677		319		359		2		5		0
678		320		359		0		5		0
679		404		359		1		2		0
680		321		360		1		5		0
681		322		360		0		5		0
682		401		360		2		2		0
683		323		361		2		5		0
684		324		361		0		5		0
685		415		361		1		2		0
686		325		362		0		5		0
687		326		362		2		5		0
688		410		362		1		2		0
689		327		363		1		5		0
690		328		363		2		5		0
691		412		363		0		2		0
692		329		364		1		5		0
693		330		364		2		5		0
694		412		364		0		2		0
695		331		365		2		5		0
696		332		365		0		5		0
697		401		365		1		2		0
698		333		366		1		5		0
699		334		366		2		5		0
700		406		366		0		2		0
701		335		367		1		5		0
702		336		367		0		5		0
703		405		367		2		2		0
704		337		368		0		5		0
705		338		368		1		5		0
706		416		368		2		2		0
707		339		369		0		5		0
708		340		369		1		5		0
709		403		369		2		2		0
710		341		370		0		5		0
711		342		370		1		5		0
712		405		370		2		2		0
713		343		371		2		5		0
714		344		371		1		5		0
715		409		371		0		2		0
716		345		372		1		5		0
717		346		372		0		5		0
718		407		372		2		2		0
719		347		373		2		5		0
720		348		373		1		5		0
721		409		373		0		2		0
722		349		374		2		5		0
723		350		374		0		5		0
724		411		374		1		2		0
725		351		375		0		5		0
726		352		375		1		5		0
727		405		375		2		2		0
728		353		376		1		5		0
729		354		376		2		5		0
730		413		376		0		2		0
731		355		377		2		5		0
732		356		377		1		5		0
733		411		377		0		2		0
734		357		378		2		5		0
735		358		378		0		5		0
736		416		378		1		2		0
737		359		379		1		5		0
738		360		379		2		5		0
739		401		379		0		2		0
740		361		380		1		5		0
741		362		380		0		5		0
742		414		380		2		2		0
743		363		381		2		5		0
744		364		381		1		5		0
745		407		381		0		2		0
746		365		382		0		5		0
747		366		382		2		5		0
748		403		382		1		2		0
749		367		383		2		5		0
750		368		383		0		5		0
751		413		383		1		2		0
752		369		384		0		5		0
753		370		384		2		5		0
754		412		384		1		2		0
755		371		385		2		5		0
756		372		385		1		5		0
757		401		385		0		2		0
758		373		386		0		5		0
759		374		386		2		5		0
760		411		386		1		2		0
761		375		387		1		5		0
762		376		387		2		5		0
763		408		387		0		2		0
764		377		388		2		5		0
765		378		388		0		5		0
766		406		388		1		2		0
767		379		389		1		5		0
768		380		389		2		5		0
769		409		389		0		2		0
770		381		390		0		5		0
771		382		390		1		5		0
772		405		390		2		2		0
773		383		391		2		5		0
774		384		391		1		5		0
775		413		391		0		2		0
776		385		392		0		5		0
777		386		392		1		5		0
778		408		392		2		2		0
779		387		393		0		5		0
780		388		393		1		5		0
781		403		393		2		2		0
782		389		394		2		5		0
783		390		394		0		5		0
784		406		394		1		2		0
785		391		395		0		5		0
786		392		395		2		5		0
787		414		395		1		2		0
788		393		396		1		5		0
789		394		396		2		5		0
790		415		396		0		2		0
791		395		397		0		5		0
792		396		397		2		5		0
793		407		397		1		2		0
794		397		398		2		5		0
795		398		398		0		5		0
796		406		398		1		2		0
797		399		399		0		5		0
798		400		399		1		5		0
799		412		399		2		2		0
